matrix = [|
  3, 41, 0, 25, 16, 19, 30, 6, 26, 17, 12, 31, 21, 10, 1, 11, 22, 23, 4, 2, 18, 0, 0, 0, 0, 0, 0, 0, 0, 0, 0, 0, 0, 0, 0, 0, 0, 0 |
  5, 57, 1, 4, 11, 27, 19, 5, 24, 20, 0, 0, 0, 0, 0, 0, 0, 0, 0, 0, 0, 0, 0, 0, 0, 0, 0, 0, 0, 0, 0, 0, 0, 0, 0, 0, 0, 0 |
  2, 57, 1, 2, 22, 23, 26, 31, 20, 32, 16, 3, 12, 17, 6, 1, 24, 4, 9, 13, 15, 18, 33, 19, 0, 0, 0, 0, 0, 0, 0, 0, 0, 0, 0, 0, 0, 0 |
  9, 75, 0, 1, 6, 27, 28, 9, 13, 2, 30, 19, 20, 12, 18, 32, 25, 0, 0, 0, 0, 0, 0, 0, 0, 0, 0, 0, 0, 0, 0, 0, 0, 0, 0, 0, 0, 0 |
  2, 67, 1, 30, 29, 32, 24, 10, 8, 26, 18, 16, 11, 0, 0, 0, 0, 0, 0, 0, 0, 0, 0, 0, 0, 0, 0, 0, 0, 0, 0, 0, 0, 0, 0, 0, 0, 0 |
  3, 76, 1, 6, 8, 32, 30, 5, 17, 27, 10, 26, 25, 19, 0, 0, 0, 0, 0, 0, 0, 0, 0, 0, 0, 0, 0, 0, 0, 0, 0, 0, 0, 0, 0, 0, 0, 0 |
  10, 67, 0, 15, 5, 4, 32, 10, 14, 31, 9, 6, 8, 23, 33, 20, 24, 7, 35, 13, 26, 2, 0, 0, 0, 0, 0, 0, 0, 0, 0, 0, 0, 0, 0, 0, 0, 0 |
  2, 67, 1, 33, 13, 15, 5, 10, 32, 11, 25, 17, 2, 26, 19, 0, 0, 0, 0, 0, 0, 0, 0, 0, 0, 0, 0, 0, 0, 0, 0, 0, 0, 0, 0, 0, 0, 0 |
  9, 69, 1, 33, 26, 24, 34, 5, 3, 2, 22, 29, 18, 27, 8, 4, 17, 0, 0, 0, 0, 0, 0, 0, 0, 0, 0, 0, 0, 0, 0, 0, 0, 0, 0, 0, 0, 0 |
  5, 70, 1, 6, 15, 11, 32, 8, 20, 3, 10, 34, 5, 18, 4, 0, 0, 0, 0, 0, 0, 0, 0, 0, 0, 0, 0, 0, 0, 0, 0, 0, 0, 0, 0, 0, 0, 0 |
  2, 49, 1, 8, 5, 1, 4, 2, 12, 3, 0, 0, 0, 0, 0, 0, 0, 0, 0, 0, 0, 0, 0, 0, 0, 0, 0, 0, 0, 0, 0, 0, 0, 0, 0, 0, 0, 0 |
  5, 59, 1, 11, 1, 34, 13, 4, 26, 12, 24, 19, 16, 31, 5, 27, 23, 22, 8, 33, 10, 0, 0, 0, 0, 0, 0, 0, 0, 0, 0, 0, 0, 0, 0, 0, 0, 0 |
  2, 78, 0, 14, 13, 34, 25, 15, 17, 18, 24, 33, 9, 20, 35, 28, 10, 3, 23, 0, 0, 0, 0, 0, 0, 0, 0, 0, 0, 0, 0, 0, 0, 0, 0, 0, 0, 0 |
  4, 41, 1, 27, 20, 32, 31, 1, 12, 19, 5, 22, 3, 25, 8, 4, 13, 10, 33, 34, 0, 0, 0, 0, 0, 0, 0, 0, 0, 0, 0, 0, 0, 0, 0, 0, 0, 0 |
  2, 42, 1, 19, 11, 26, 16, 3, 32, 15, 34, 12, 1, 9, 20, 17, 18, 0, 0, 0, 0, 0, 0, 0, 0, 0, 0, 0, 0, 0, 0, 0, 0, 0, 0, 0, 0, 0 |
  9, 64, 1, 23, 26, 27, 9, 4, 3, 12, 5, 1, 24, 22, 29, 20, 17, 31, 13, 15, 11, 19, 16, 0, 0, 0, 0, 0, 0, 0, 0, 0, 0, 0, 0, 0, 0, 0 |
  4, 64, 1, 5, 1, 15, 3, 18, 34, 19, 4, 0, 0, 0, 0, 0, 0, 0, 0, 0, 0, 0, 0, 0, 0, 0, 0, 0, 0, 0, 0, 0, 0, 0, 0, 0, 0, 0 |
  5, 65, 1, 29, 23, 16, 13, 11, 9, 6, 2, 22, 34, 27, 32, 0, 0, 0, 0, 0, 0, 0, 0, 0, 0, 0, 0, 0, 0, 0, 0, 0, 0, 0, 0, 0, 0, 0 |
  5, 44, 1, 8, 6, 16, 31, 22, 32, 15, 2, 0, 0, 0, 0, 0, 0, 0, 0, 0, 0, 0, 0, 0, 0, 0, 0, 0, 0, 0, 0, 0, 0, 0, 0, 0, 0, 0 |
  7, 80, 0, 35, 34, 10, 25, 32, 24, 30, 18, 12, 31, 7, 3, 19, 29, 23, 21, 16, 2, 15, 13, 28, 0, 0, 0, 0, 0, 0, 0, 0, 0, 0, 0, 0, 0, 0 |
  3, 47, 1, 11, 4, 32, 22, 16, 24, 8, 0, 0, 0, 0, 0, 0, 0, 0, 0, 0, 0, 0, 0, 0, 0, 0, 0, 0, 0, 0, 0, 0, 0, 0, 0, 0, 0, 0 |
  2, 53, 1, 29, 17, 30, 5, 31, 15, 10, 23, 27, 24, 33, 8, 25, 3, 11, 16, 19, 18, 20, 13, 0, 0, 0, 0, 0, 0, 0, 0, 0, 0, 0, 0, 0, 0, 0 |
  2, 67, 1, 31, 29, 8, 10, 12, 17, 11, 4, 33, 26, 30, 32, 24, 9, 23, 15, 2, 1, 0, 0, 0, 0, 0, 0, 0, 0, 0, 0, 0, 0, 0, 0, 0, 0, 0 |
  2, 53, 1, 29, 3, 6, 11, 4, 19, 30, 22, 26, 27, 13, 20, 33, 16, 32, 15, 0, 0, 0, 0, 0, 0, 0, 0, 0, 0, 0, 0, 0, 0, 0, 0, 0, 0, 0 |
  3, 58, 0, 12, 17, 20, 8, 35, 34, 30, 0, 0, 0, 0, 0, 0, 0, 0, 0, 0, 0, 0, 0, 0, 0, 0, 0, 0, 0, 0, 0, 0, 0, 0, 0, 0, 0, 0 |
  1, 66, 1, 11, 27, 25, 1, 8, 29, 19, 9, 0, 0, 0, 0, 0, 0, 0, 0, 0, 0, 0, 0, 0, 0, 0, 0, 0, 0, 0, 0, 0, 0, 0, 0, 0, 0, 0 |
  4, 69, 1, 5, 26, 4, 17, 32, 27, 19, 9, 25, 10, 16, 18, 12, 2, 29, 23, 6, 0, 0, 0, 0, 0, 0, 0, 0, 0, 0, 0, 0, 0, 0, 0, 0, 0, 0 |
  5, 49, 1, 30, 32, 8, 23, 2, 15, 17, 18, 20, 11, 26, 0, 0, 0, 0, 0, 0, 0, 0, 0, 0, 0, 0, 0, 0, 0, 0, 0, 0, 0, 0, 0, 0, 0, 0 |
  3, 41, 1, 34, 15, 13, 25, 8, 16, 9, 29, 12, 6, 0, 0, 0, 0, 0, 0, 0, 0, 0, 0, 0, 0, 0, 0, 0, 0, 0, 0, 0, 0, 0, 0, 0, 0, 0 |
  5, 65, 0, 20, 28, 15, 22, 2, 19, 29, 0, 0, 0, 0, 0, 0, 0, 0, 0, 0, 0, 0, 0, 0, 0, 0, 0, 0, 0, 0, 0, 0, 0, 0, 0, 0, 0, 0 |
  9, 49, 0, 1, 26, 4, 11, 31, 23, 6, 32, 16, 29, 10, 12, 14, 19, 20, 24, 28, 0, 0, 0, 0, 0, 0, 0, 0, 0, 0, 0, 0, 0, 0, 0, 0, 0, 0 |
  4, 42, 1, 10, 27, 19, 34, 29, 26, 16, 18, 3, 23, 20, 11, 8, 15, 31, 25, 17, 30, 5, 1, 0, 0, 0, 0, 0, 0, 0, 0, 0, 0, 0, 0, 0, 0, 0 |
  4, 51, 0, 28, 18, 32, 8, 17, 19, 20, 9, 3, 26, 35, 24, 15, 16, 0, 0, 0, 0, 0, 0, 0, 0, 0, 0, 0, 0, 0, 0, 0, 0, 0, 0, 0, 0, 0 |
  3, 47, 1, 1, 18, 12, 10, 25, 33, 24, 5, 17, 32, 22, 8, 23, 16, 11, 34, 29, 20, 0, 0, 0, 0, 0, 0, 0, 0, 0, 0, 0, 0, 0, 0, 0, 0, 0 |
  2, 43, 1, 1, 20, 34, 2, 23, 12, 15, 19, 32, 29, 31, 5, 33, 22, 30, 13, 9, 6, 0, 0, 0, 0, 0, 0, 0, 0, 0, 0, 0, 0, 0, 0, 0, 0, 0 |
  8, 70, 1, 13, 2, 11, 4, 1, 33, 18, 23, 0, 0, 0, 0, 0, 0, 0, 0, 0, 0, 0, 0, 0, 0, 0, 0, 0, 0, 0, 0, 0, 0, 0, 0, 0, 0, 0 |
  3, 75, 0, 9, 24, 13, 31, 35, 16, 32, 25, 30, 34, 4, 0, 0, 0, 0, 0, 0, 0, 0, 0, 0, 0, 0, 0, 0, 0, 0, 0, 0, 0, 0, 0, 0, 0, 0 |
  2, 61, 0, 26, 33, 3, 13, 35, 15, 29, 0, 0, 0, 0, 0, 0, 0, 0, 0, 0, 0, 0, 0, 0, 0, 0, 0, 0, 0, 0, 0, 0, 0, 0, 0, 0, 0, 0 |
  2, 80, 0, 24, 18, 13, 33, 26, 19, 3, 20, 27, 29, 4, 34, 30, 12, 7, 14, 16, 32, 0, 0, 0, 0, 0, 0, 0, 0, 0, 0, 0, 0, 0, 0, 0, 0, 0 |
  6, 73, 1, 6, 26, 30, 27, 20, 19, 13, 16, 2, 34, 4, 5, 11, 32, 25, 17, 12, 33, 0, 0, 0, 0, 0, 0, 0, 0, 0, 0, 0, 0, 0, 0, 0, 0, 0 |
|];
